c *********************************
c * Circuit generated by BenCGen
c *
c * Parity_291
c *
c * Ports with 1 gate(s): 1
c * Ports with 2 gate(s): 291
c * Total gates: 292
c *********************************
p cnf 583 1165
1 294 0
-1 -294 0
1 -293 0
294 -293 0
-1 -294 293 0
1 2 -295 0
-1 2 295 0
1 -2 295 0
-1 -2 -295 0
3 4 -296 0
-3 4 296 0
3 -4 296 0
-3 -4 -296 0
5 6 -297 0
-5 6 297 0
5 -6 297 0
-5 -6 -297 0
7 8 -298 0
-7 8 298 0
7 -8 298 0
-7 -8 -298 0
9 10 -299 0
-9 10 299 0
9 -10 299 0
-9 -10 -299 0
11 12 -300 0
-11 12 300 0
11 -12 300 0
-11 -12 -300 0
13 14 -301 0
-13 14 301 0
13 -14 301 0
-13 -14 -301 0
15 16 -302 0
-15 16 302 0
15 -16 302 0
-15 -16 -302 0
17 18 -303 0
-17 18 303 0
17 -18 303 0
-17 -18 -303 0
19 20 -304 0
-19 20 304 0
19 -20 304 0
-19 -20 -304 0
21 22 -305 0
-21 22 305 0
21 -22 305 0
-21 -22 -305 0
23 24 -306 0
-23 24 306 0
23 -24 306 0
-23 -24 -306 0
25 26 -307 0
-25 26 307 0
25 -26 307 0
-25 -26 -307 0
27 28 -308 0
-27 28 308 0
27 -28 308 0
-27 -28 -308 0
29 30 -309 0
-29 30 309 0
29 -30 309 0
-29 -30 -309 0
31 32 -310 0
-31 32 310 0
31 -32 310 0
-31 -32 -310 0
33 34 -311 0
-33 34 311 0
33 -34 311 0
-33 -34 -311 0
35 36 -312 0
-35 36 312 0
35 -36 312 0
-35 -36 -312 0
37 38 -313 0
-37 38 313 0
37 -38 313 0
-37 -38 -313 0
39 40 -314 0
-39 40 314 0
39 -40 314 0
-39 -40 -314 0
41 42 -315 0
-41 42 315 0
41 -42 315 0
-41 -42 -315 0
43 44 -316 0
-43 44 316 0
43 -44 316 0
-43 -44 -316 0
45 46 -317 0
-45 46 317 0
45 -46 317 0
-45 -46 -317 0
47 48 -318 0
-47 48 318 0
47 -48 318 0
-47 -48 -318 0
49 50 -319 0
-49 50 319 0
49 -50 319 0
-49 -50 -319 0
51 52 -320 0
-51 52 320 0
51 -52 320 0
-51 -52 -320 0
53 54 -321 0
-53 54 321 0
53 -54 321 0
-53 -54 -321 0
55 56 -322 0
-55 56 322 0
55 -56 322 0
-55 -56 -322 0
57 58 -323 0
-57 58 323 0
57 -58 323 0
-57 -58 -323 0
59 60 -324 0
-59 60 324 0
59 -60 324 0
-59 -60 -324 0
61 62 -325 0
-61 62 325 0
61 -62 325 0
-61 -62 -325 0
63 64 -326 0
-63 64 326 0
63 -64 326 0
-63 -64 -326 0
65 66 -327 0
-65 66 327 0
65 -66 327 0
-65 -66 -327 0
67 68 -328 0
-67 68 328 0
67 -68 328 0
-67 -68 -328 0
69 70 -329 0
-69 70 329 0
69 -70 329 0
-69 -70 -329 0
71 72 -330 0
-71 72 330 0
71 -72 330 0
-71 -72 -330 0
73 74 -331 0
-73 74 331 0
73 -74 331 0
-73 -74 -331 0
75 76 -332 0
-75 76 332 0
75 -76 332 0
-75 -76 -332 0
77 78 -333 0
-77 78 333 0
77 -78 333 0
-77 -78 -333 0
79 80 -334 0
-79 80 334 0
79 -80 334 0
-79 -80 -334 0
81 82 -335 0
-81 82 335 0
81 -82 335 0
-81 -82 -335 0
83 84 -336 0
-83 84 336 0
83 -84 336 0
-83 -84 -336 0
85 86 -337 0
-85 86 337 0
85 -86 337 0
-85 -86 -337 0
87 88 -338 0
-87 88 338 0
87 -88 338 0
-87 -88 -338 0
89 90 -339 0
-89 90 339 0
89 -90 339 0
-89 -90 -339 0
91 92 -340 0
-91 92 340 0
91 -92 340 0
-91 -92 -340 0
93 94 -341 0
-93 94 341 0
93 -94 341 0
-93 -94 -341 0
95 96 -342 0
-95 96 342 0
95 -96 342 0
-95 -96 -342 0
97 98 -343 0
-97 98 343 0
97 -98 343 0
-97 -98 -343 0
99 100 -344 0
-99 100 344 0
99 -100 344 0
-99 -100 -344 0
101 102 -345 0
-101 102 345 0
101 -102 345 0
-101 -102 -345 0
103 104 -346 0
-103 104 346 0
103 -104 346 0
-103 -104 -346 0
105 106 -347 0
-105 106 347 0
105 -106 347 0
-105 -106 -347 0
107 108 -348 0
-107 108 348 0
107 -108 348 0
-107 -108 -348 0
109 110 -349 0
-109 110 349 0
109 -110 349 0
-109 -110 -349 0
111 112 -350 0
-111 112 350 0
111 -112 350 0
-111 -112 -350 0
113 114 -351 0
-113 114 351 0
113 -114 351 0
-113 -114 -351 0
115 116 -352 0
-115 116 352 0
115 -116 352 0
-115 -116 -352 0
117 118 -353 0
-117 118 353 0
117 -118 353 0
-117 -118 -353 0
119 120 -354 0
-119 120 354 0
119 -120 354 0
-119 -120 -354 0
121 122 -355 0
-121 122 355 0
121 -122 355 0
-121 -122 -355 0
123 124 -356 0
-123 124 356 0
123 -124 356 0
-123 -124 -356 0
125 126 -357 0
-125 126 357 0
125 -126 357 0
-125 -126 -357 0
127 128 -358 0
-127 128 358 0
127 -128 358 0
-127 -128 -358 0
129 130 -359 0
-129 130 359 0
129 -130 359 0
-129 -130 -359 0
131 132 -360 0
-131 132 360 0
131 -132 360 0
-131 -132 -360 0
133 134 -361 0
-133 134 361 0
133 -134 361 0
-133 -134 -361 0
135 136 -362 0
-135 136 362 0
135 -136 362 0
-135 -136 -362 0
137 138 -363 0
-137 138 363 0
137 -138 363 0
-137 -138 -363 0
139 140 -364 0
-139 140 364 0
139 -140 364 0
-139 -140 -364 0
141 142 -365 0
-141 142 365 0
141 -142 365 0
-141 -142 -365 0
143 144 -366 0
-143 144 366 0
143 -144 366 0
-143 -144 -366 0
145 146 -367 0
-145 146 367 0
145 -146 367 0
-145 -146 -367 0
147 148 -368 0
-147 148 368 0
147 -148 368 0
-147 -148 -368 0
149 150 -369 0
-149 150 369 0
149 -150 369 0
-149 -150 -369 0
151 152 -370 0
-151 152 370 0
151 -152 370 0
-151 -152 -370 0
153 154 -371 0
-153 154 371 0
153 -154 371 0
-153 -154 -371 0
155 156 -372 0
-155 156 372 0
155 -156 372 0
-155 -156 -372 0
157 158 -373 0
-157 158 373 0
157 -158 373 0
-157 -158 -373 0
159 160 -374 0
-159 160 374 0
159 -160 374 0
-159 -160 -374 0
161 162 -375 0
-161 162 375 0
161 -162 375 0
-161 -162 -375 0
163 164 -376 0
-163 164 376 0
163 -164 376 0
-163 -164 -376 0
165 166 -377 0
-165 166 377 0
165 -166 377 0
-165 -166 -377 0
167 168 -378 0
-167 168 378 0
167 -168 378 0
-167 -168 -378 0
169 170 -379 0
-169 170 379 0
169 -170 379 0
-169 -170 -379 0
171 172 -380 0
-171 172 380 0
171 -172 380 0
-171 -172 -380 0
173 174 -381 0
-173 174 381 0
173 -174 381 0
-173 -174 -381 0
175 176 -382 0
-175 176 382 0
175 -176 382 0
-175 -176 -382 0
177 178 -383 0
-177 178 383 0
177 -178 383 0
-177 -178 -383 0
179 180 -384 0
-179 180 384 0
179 -180 384 0
-179 -180 -384 0
181 182 -385 0
-181 182 385 0
181 -182 385 0
-181 -182 -385 0
183 184 -386 0
-183 184 386 0
183 -184 386 0
-183 -184 -386 0
185 186 -387 0
-185 186 387 0
185 -186 387 0
-185 -186 -387 0
187 188 -388 0
-187 188 388 0
187 -188 388 0
-187 -188 -388 0
189 190 -389 0
-189 190 389 0
189 -190 389 0
-189 -190 -389 0
191 192 -390 0
-191 192 390 0
191 -192 390 0
-191 -192 -390 0
193 194 -391 0
-193 194 391 0
193 -194 391 0
-193 -194 -391 0
195 196 -392 0
-195 196 392 0
195 -196 392 0
-195 -196 -392 0
197 198 -393 0
-197 198 393 0
197 -198 393 0
-197 -198 -393 0
199 200 -394 0
-199 200 394 0
199 -200 394 0
-199 -200 -394 0
201 202 -395 0
-201 202 395 0
201 -202 395 0
-201 -202 -395 0
203 204 -396 0
-203 204 396 0
203 -204 396 0
-203 -204 -396 0
205 206 -397 0
-205 206 397 0
205 -206 397 0
-205 -206 -397 0
207 208 -398 0
-207 208 398 0
207 -208 398 0
-207 -208 -398 0
209 210 -399 0
-209 210 399 0
209 -210 399 0
-209 -210 -399 0
211 212 -400 0
-211 212 400 0
211 -212 400 0
-211 -212 -400 0
213 214 -401 0
-213 214 401 0
213 -214 401 0
-213 -214 -401 0
215 216 -402 0
-215 216 402 0
215 -216 402 0
-215 -216 -402 0
217 218 -403 0
-217 218 403 0
217 -218 403 0
-217 -218 -403 0
219 220 -404 0
-219 220 404 0
219 -220 404 0
-219 -220 -404 0
221 222 -405 0
-221 222 405 0
221 -222 405 0
-221 -222 -405 0
223 224 -406 0
-223 224 406 0
223 -224 406 0
-223 -224 -406 0
225 226 -407 0
-225 226 407 0
225 -226 407 0
-225 -226 -407 0
227 228 -408 0
-227 228 408 0
227 -228 408 0
-227 -228 -408 0
229 230 -409 0
-229 230 409 0
229 -230 409 0
-229 -230 -409 0
231 232 -410 0
-231 232 410 0
231 -232 410 0
-231 -232 -410 0
233 234 -411 0
-233 234 411 0
233 -234 411 0
-233 -234 -411 0
235 236 -412 0
-235 236 412 0
235 -236 412 0
-235 -236 -412 0
237 238 -413 0
-237 238 413 0
237 -238 413 0
-237 -238 -413 0
239 240 -414 0
-239 240 414 0
239 -240 414 0
-239 -240 -414 0
241 242 -415 0
-241 242 415 0
241 -242 415 0
-241 -242 -415 0
243 244 -416 0
-243 244 416 0
243 -244 416 0
-243 -244 -416 0
245 246 -417 0
-245 246 417 0
245 -246 417 0
-245 -246 -417 0
247 248 -418 0
-247 248 418 0
247 -248 418 0
-247 -248 -418 0
249 250 -419 0
-249 250 419 0
249 -250 419 0
-249 -250 -419 0
251 252 -420 0
-251 252 420 0
251 -252 420 0
-251 -252 -420 0
253 254 -421 0
-253 254 421 0
253 -254 421 0
-253 -254 -421 0
255 256 -422 0
-255 256 422 0
255 -256 422 0
-255 -256 -422 0
257 258 -423 0
-257 258 423 0
257 -258 423 0
-257 -258 -423 0
259 260 -424 0
-259 260 424 0
259 -260 424 0
-259 -260 -424 0
261 262 -425 0
-261 262 425 0
261 -262 425 0
-261 -262 -425 0
263 264 -426 0
-263 264 426 0
263 -264 426 0
-263 -264 -426 0
265 266 -427 0
-265 266 427 0
265 -266 427 0
-265 -266 -427 0
267 268 -428 0
-267 268 428 0
267 -268 428 0
-267 -268 -428 0
269 270 -429 0
-269 270 429 0
269 -270 429 0
-269 -270 -429 0
271 272 -430 0
-271 272 430 0
271 -272 430 0
-271 -272 -430 0
273 274 -431 0
-273 274 431 0
273 -274 431 0
-273 -274 -431 0
275 276 -432 0
-275 276 432 0
275 -276 432 0
-275 -276 -432 0
277 278 -433 0
-277 278 433 0
277 -278 433 0
-277 -278 -433 0
279 280 -434 0
-279 280 434 0
279 -280 434 0
-279 -280 -434 0
281 282 -435 0
-281 282 435 0
281 -282 435 0
-281 -282 -435 0
283 284 -436 0
-283 284 436 0
283 -284 436 0
-283 -284 -436 0
285 286 -437 0
-285 286 437 0
285 -286 437 0
-285 -286 -437 0
287 288 -438 0
-287 288 438 0
287 -288 438 0
-287 -288 -438 0
289 290 -439 0
-289 290 439 0
289 -290 439 0
-289 -290 -439 0
295 296 -440 0
-295 296 440 0
295 -296 440 0
-295 -296 -440 0
297 298 -441 0
-297 298 441 0
297 -298 441 0
-297 -298 -441 0
299 300 -442 0
-299 300 442 0
299 -300 442 0
-299 -300 -442 0
301 302 -443 0
-301 302 443 0
301 -302 443 0
-301 -302 -443 0
303 304 -444 0
-303 304 444 0
303 -304 444 0
-303 -304 -444 0
305 306 -445 0
-305 306 445 0
305 -306 445 0
-305 -306 -445 0
307 308 -446 0
-307 308 446 0
307 -308 446 0
-307 -308 -446 0
309 310 -447 0
-309 310 447 0
309 -310 447 0
-309 -310 -447 0
311 312 -448 0
-311 312 448 0
311 -312 448 0
-311 -312 -448 0
313 314 -449 0
-313 314 449 0
313 -314 449 0
-313 -314 -449 0
315 316 -450 0
-315 316 450 0
315 -316 450 0
-315 -316 -450 0
317 318 -451 0
-317 318 451 0
317 -318 451 0
-317 -318 -451 0
319 320 -452 0
-319 320 452 0
319 -320 452 0
-319 -320 -452 0
321 322 -453 0
-321 322 453 0
321 -322 453 0
-321 -322 -453 0
323 324 -454 0
-323 324 454 0
323 -324 454 0
-323 -324 -454 0
325 326 -455 0
-325 326 455 0
325 -326 455 0
-325 -326 -455 0
327 328 -456 0
-327 328 456 0
327 -328 456 0
-327 -328 -456 0
329 330 -457 0
-329 330 457 0
329 -330 457 0
-329 -330 -457 0
331 332 -458 0
-331 332 458 0
331 -332 458 0
-331 -332 -458 0
333 334 -459 0
-333 334 459 0
333 -334 459 0
-333 -334 -459 0
335 336 -460 0
-335 336 460 0
335 -336 460 0
-335 -336 -460 0
337 338 -461 0
-337 338 461 0
337 -338 461 0
-337 -338 -461 0
339 340 -462 0
-339 340 462 0
339 -340 462 0
-339 -340 -462 0
341 342 -463 0
-341 342 463 0
341 -342 463 0
-341 -342 -463 0
343 344 -464 0
-343 344 464 0
343 -344 464 0
-343 -344 -464 0
345 346 -465 0
-345 346 465 0
345 -346 465 0
-345 -346 -465 0
347 348 -466 0
-347 348 466 0
347 -348 466 0
-347 -348 -466 0
349 350 -467 0
-349 350 467 0
349 -350 467 0
-349 -350 -467 0
351 352 -468 0
-351 352 468 0
351 -352 468 0
-351 -352 -468 0
353 354 -469 0
-353 354 469 0
353 -354 469 0
-353 -354 -469 0
355 356 -470 0
-355 356 470 0
355 -356 470 0
-355 -356 -470 0
357 358 -471 0
-357 358 471 0
357 -358 471 0
-357 -358 -471 0
359 360 -472 0
-359 360 472 0
359 -360 472 0
-359 -360 -472 0
361 362 -473 0
-361 362 473 0
361 -362 473 0
-361 -362 -473 0
363 364 -474 0
-363 364 474 0
363 -364 474 0
-363 -364 -474 0
365 366 -475 0
-365 366 475 0
365 -366 475 0
-365 -366 -475 0
367 368 -476 0
-367 368 476 0
367 -368 476 0
-367 -368 -476 0
369 370 -477 0
-369 370 477 0
369 -370 477 0
-369 -370 -477 0
371 372 -478 0
-371 372 478 0
371 -372 478 0
-371 -372 -478 0
373 374 -479 0
-373 374 479 0
373 -374 479 0
-373 -374 -479 0
375 376 -480 0
-375 376 480 0
375 -376 480 0
-375 -376 -480 0
377 378 -481 0
-377 378 481 0
377 -378 481 0
-377 -378 -481 0
379 380 -482 0
-379 380 482 0
379 -380 482 0
-379 -380 -482 0
381 382 -483 0
-381 382 483 0
381 -382 483 0
-381 -382 -483 0
383 384 -484 0
-383 384 484 0
383 -384 484 0
-383 -384 -484 0
385 386 -485 0
-385 386 485 0
385 -386 485 0
-385 -386 -485 0
387 388 -486 0
-387 388 486 0
387 -388 486 0
-387 -388 -486 0
389 390 -487 0
-389 390 487 0
389 -390 487 0
-389 -390 -487 0
391 392 -488 0
-391 392 488 0
391 -392 488 0
-391 -392 -488 0
393 394 -489 0
-393 394 489 0
393 -394 489 0
-393 -394 -489 0
395 396 -490 0
-395 396 490 0
395 -396 490 0
-395 -396 -490 0
397 398 -491 0
-397 398 491 0
397 -398 491 0
-397 -398 -491 0
399 400 -492 0
-399 400 492 0
399 -400 492 0
-399 -400 -492 0
401 402 -493 0
-401 402 493 0
401 -402 493 0
-401 -402 -493 0
403 404 -494 0
-403 404 494 0
403 -404 494 0
-403 -404 -494 0
405 406 -495 0
-405 406 495 0
405 -406 495 0
-405 -406 -495 0
407 408 -496 0
-407 408 496 0
407 -408 496 0
-407 -408 -496 0
409 410 -497 0
-409 410 497 0
409 -410 497 0
-409 -410 -497 0
411 412 -498 0
-411 412 498 0
411 -412 498 0
-411 -412 -498 0
413 414 -499 0
-413 414 499 0
413 -414 499 0
-413 -414 -499 0
415 416 -500 0
-415 416 500 0
415 -416 500 0
-415 -416 -500 0
417 418 -501 0
-417 418 501 0
417 -418 501 0
-417 -418 -501 0
419 420 -502 0
-419 420 502 0
419 -420 502 0
-419 -420 -502 0
421 422 -503 0
-421 422 503 0
421 -422 503 0
-421 -422 -503 0
423 424 -504 0
-423 424 504 0
423 -424 504 0
-423 -424 -504 0
425 426 -505 0
-425 426 505 0
425 -426 505 0
-425 -426 -505 0
427 428 -506 0
-427 428 506 0
427 -428 506 0
-427 -428 -506 0
429 430 -507 0
-429 430 507 0
429 -430 507 0
-429 -430 -507 0
431 432 -508 0
-431 432 508 0
431 -432 508 0
-431 -432 -508 0
433 434 -509 0
-433 434 509 0
433 -434 509 0
-433 -434 -509 0
435 436 -510 0
-435 436 510 0
435 -436 510 0
-435 -436 -510 0
437 438 -511 0
-437 438 511 0
437 -438 511 0
-437 -438 -511 0
439 291 -512 0
-439 291 512 0
439 -291 512 0
-439 -291 -512 0
440 441 -513 0
-440 441 513 0
440 -441 513 0
-440 -441 -513 0
442 443 -514 0
-442 443 514 0
442 -443 514 0
-442 -443 -514 0
444 445 -515 0
-444 445 515 0
444 -445 515 0
-444 -445 -515 0
446 447 -516 0
-446 447 516 0
446 -447 516 0
-446 -447 -516 0
448 449 -517 0
-448 449 517 0
448 -449 517 0
-448 -449 -517 0
450 451 -518 0
-450 451 518 0
450 -451 518 0
-450 -451 -518 0
452 453 -519 0
-452 453 519 0
452 -453 519 0
-452 -453 -519 0
454 455 -520 0
-454 455 520 0
454 -455 520 0
-454 -455 -520 0
456 457 -521 0
-456 457 521 0
456 -457 521 0
-456 -457 -521 0
458 459 -522 0
-458 459 522 0
458 -459 522 0
-458 -459 -522 0
460 461 -523 0
-460 461 523 0
460 -461 523 0
-460 -461 -523 0
462 463 -524 0
-462 463 524 0
462 -463 524 0
-462 -463 -524 0
464 465 -525 0
-464 465 525 0
464 -465 525 0
-464 -465 -525 0
466 467 -526 0
-466 467 526 0
466 -467 526 0
-466 -467 -526 0
468 469 -527 0
-468 469 527 0
468 -469 527 0
-468 -469 -527 0
470 471 -528 0
-470 471 528 0
470 -471 528 0
-470 -471 -528 0
472 473 -529 0
-472 473 529 0
472 -473 529 0
-472 -473 -529 0
474 475 -530 0
-474 475 530 0
474 -475 530 0
-474 -475 -530 0
476 477 -531 0
-476 477 531 0
476 -477 531 0
-476 -477 -531 0
478 479 -532 0
-478 479 532 0
478 -479 532 0
-478 -479 -532 0
480 481 -533 0
-480 481 533 0
480 -481 533 0
-480 -481 -533 0
482 483 -534 0
-482 483 534 0
482 -483 534 0
-482 -483 -534 0
484 485 -535 0
-484 485 535 0
484 -485 535 0
-484 -485 -535 0
486 487 -536 0
-486 487 536 0
486 -487 536 0
-486 -487 -536 0
488 489 -537 0
-488 489 537 0
488 -489 537 0
-488 -489 -537 0
490 491 -538 0
-490 491 538 0
490 -491 538 0
-490 -491 -538 0
492 493 -539 0
-492 493 539 0
492 -493 539 0
-492 -493 -539 0
494 495 -540 0
-494 495 540 0
494 -495 540 0
-494 -495 -540 0
496 497 -541 0
-496 497 541 0
496 -497 541 0
-496 -497 -541 0
498 499 -542 0
-498 499 542 0
498 -499 542 0
-498 -499 -542 0
500 501 -543 0
-500 501 543 0
500 -501 543 0
-500 -501 -543 0
502 503 -544 0
-502 503 544 0
502 -503 544 0
-502 -503 -544 0
504 505 -545 0
-504 505 545 0
504 -505 545 0
-504 -505 -545 0
506 507 -546 0
-506 507 546 0
506 -507 546 0
-506 -507 -546 0
508 509 -547 0
-508 509 547 0
508 -509 547 0
-508 -509 -547 0
510 511 -548 0
-510 511 548 0
510 -511 548 0
-510 -511 -548 0
513 514 -549 0
-513 514 549 0
513 -514 549 0
-513 -514 -549 0
515 516 -550 0
-515 516 550 0
515 -516 550 0
-515 -516 -550 0
517 518 -551 0
-517 518 551 0
517 -518 551 0
-517 -518 -551 0
519 520 -552 0
-519 520 552 0
519 -520 552 0
-519 -520 -552 0
521 522 -553 0
-521 522 553 0
521 -522 553 0
-521 -522 -553 0
523 524 -554 0
-523 524 554 0
523 -524 554 0
-523 -524 -554 0
525 526 -555 0
-525 526 555 0
525 -526 555 0
-525 -526 -555 0
527 528 -556 0
-527 528 556 0
527 -528 556 0
-527 -528 -556 0
529 530 -557 0
-529 530 557 0
529 -530 557 0
-529 -530 -557 0
531 532 -558 0
-531 532 558 0
531 -532 558 0
-531 -532 -558 0
533 534 -559 0
-533 534 559 0
533 -534 559 0
-533 -534 -559 0
535 536 -560 0
-535 536 560 0
535 -536 560 0
-535 -536 -560 0
537 538 -561 0
-537 538 561 0
537 -538 561 0
-537 -538 -561 0
539 540 -562 0
-539 540 562 0
539 -540 562 0
-539 -540 -562 0
541 542 -563 0
-541 542 563 0
541 -542 563 0
-541 -542 -563 0
543 544 -564 0
-543 544 564 0
543 -544 564 0
-543 -544 -564 0
545 546 -565 0
-545 546 565 0
545 -546 565 0
-545 -546 -565 0
547 548 -566 0
-547 548 566 0
547 -548 566 0
-547 -548 -566 0
549 550 -567 0
-549 550 567 0
549 -550 567 0
-549 -550 -567 0
551 552 -568 0
-551 552 568 0
551 -552 568 0
-551 -552 -568 0
553 554 -569 0
-553 554 569 0
553 -554 569 0
-553 -554 -569 0
555 556 -570 0
-555 556 570 0
555 -556 570 0
-555 -556 -570 0
557 558 -571 0
-557 558 571 0
557 -558 571 0
-557 -558 -571 0
559 560 -572 0
-559 560 572 0
559 -560 572 0
-559 -560 -572 0
561 562 -573 0
-561 562 573 0
561 -562 573 0
-561 -562 -573 0
563 564 -574 0
-563 564 574 0
563 -564 574 0
-563 -564 -574 0
565 566 -575 0
-565 566 575 0
565 -566 575 0
-565 -566 -575 0
567 568 -576 0
-567 568 576 0
567 -568 576 0
-567 -568 -576 0
569 570 -577 0
-569 570 577 0
569 -570 577 0
-569 -570 -577 0
571 572 -578 0
-571 572 578 0
571 -572 578 0
-571 -572 -578 0
573 574 -579 0
-573 574 579 0
573 -574 579 0
-573 -574 -579 0
575 512 -580 0
-575 512 580 0
575 -512 580 0
-575 -512 -580 0
576 577 -581 0
-576 577 581 0
576 -577 581 0
-576 -577 -581 0
578 579 -582 0
-578 579 582 0
578 -579 582 0
-578 -579 -582 0
581 582 -583 0
-581 582 583 0
581 -582 583 0
-581 -582 -583 0
583 580 -292 0
-583 580 292 0
583 -580 292 0
-583 -580 -292 0
